CapLotSizing_PM/src/Instancias/TCHSLT/6i18p4m/NBB04.dat
6 18 4
 1
       602
       602
       602
       602
    2
     2
     4
     3
     4
     3
   1.5  30.3   788    20 
  2.4  42.5   947    15 
  1.7  50.0    78    20 
  1.3  47.3   661    19 
  4.7  30.9   325    18 
  3.2  13.3   721    23 
  2.4  40.3   276    17 
  3.9  25.5   795    22 
  1.7  37.8   894    16 
  4.8  25.2   223    24 
  2.3  37.5   365    24 
  2.3  20.7   510    22 
  2.8  15.8   381    21 
  2.5  24.6   746    17 
  4.7  15.5   640    15 
  1.1  23.1   649    25 
  3.3  31.4    69    16 
  1.8  32.8   222    20 
  2.5  49.0    73    22 
  3.4  45.4   759    24 
  3.5  40.4   204    17 
  4.5  21.6   269    20 
  3.5  10.6   223    24 
  2.1  44.6   466    22 
   87    28    73    97   105    38 
    5    85   149    67   161    47 
  179    48    78   152   170   100 
   74    29    38    89    87    60 
   78     8    88   149   169   130 
   24    61   141    31   161    29 
   81    18    74   176     5    95 
   54    58    16     7   109    56 
   11   174    40   122   114   171 
   40    35    96    30   157   147 
  119   144    12   157   105    50 
   68   155    91   152    21    25 
  141    96   153   132   169    76 
  162    64   141   156   102   177 
  122    30    78    67   159   116 
   72    12    44   117    10   108 
   81    35    86   146    36   109 
    3   157    79    34    72    62 
