CapLotSizing_PM/src/Instancias/TCHSLT/6i18p4m/NBB04.OUT
 CG ITER, OVMR, OVMRUB =           1   42912.3085938   42912.3007812
 CG ITER, OVMR, OVMRUB =           2   41792.0117188   41792.0078125
 CG ITER, OVMR, OVMRUB =           3   41792.0156250   41792.0078125
 CG ITER, OVMR, OVMRUB =           4   41792.0117188   41792.0078125
 CG ITER, OVMR, OVMRUB =           5   40469.0820312   41792.0078125
 CG ITER, OVMR, OVMRUB =           6   41123.7968750   41228.1718750
 CG ITER, OVMR, OVMRUB =           7   40095.9921875   41228.1718750
 CG ITER, OVMR, OVMRUB =           8   40043.1250000   41228.1718750
 CG ITER, OVMR, OVMRUB =           9   40222.6484375   41228.1718750
 CG ITER, OVMR, OVMRUB =          10   39726.3867188   39726.3828125
 CG ITER, OVMR, OVMRUB =          11   39726.1328125   39726.3828125
 CG ITER, OVMR, OVMRUB =          12   34124.3281250   39726.3828125
 CG ITER, OVMR, OVMRUB =          13   32922.9414062   39726.3828125
 CG ITER, OVMR, OVMRUB =          14   32943.4570312   37889.7187500
 CG ITER, OVMR, OVMRUB =          15   32988.2109375   37889.7187500
 CG ITER, OVMR, OVMRUB =          16   33021.5429688   37889.7187500
 CG ITER, OVMR, OVMRUB =          17   33060.4062500   37889.7187500
 CG ITER, OVMR, OVMRUB =          18   33104.3789062   37889.7187500
 CG ITER, OVMR, OVMRUB =          19   33121.9296875   37889.7187500
 CG ITER, OVMR, OVMRUB =          20   33163.7890625   37889.7187500
 CG ITER, OVMR, OVMRUB =          21   33195.7382812   37889.7187500
 CG ITER, OVMR, OVMRUB =          22   33223.5429688   37889.7187500
 CG ITER, OVMR, OVMRUB =          23   33257.9335938   37889.7187500
 CG ITER, OVMR, OVMRUB =          24   33286.9648438   37889.7187500
 CG ITER, OVMR, OVMRUB =          25   33318.3789062   37889.7187500
 CG ITER, OVMR, OVMRUB =          26   33030.8476562   37889.7187500
 CG ITER, OVMR, OVMRUB =          27   33048.9023438   37889.7187500
 CG ITER, OVMR, OVMRUB =          28   33045.3203125   37889.7187500
 CG ITER, OVMR, OVMRUB =          29   33046.5000000   37889.7187500
 CG ITER, OVMR, OVMRUB =          30   33078.4804688   37889.7187500
 CG ITER, OVMR, OVMRUB =          31   33110.3906250   37889.7187500
 CG ITER, OVMR, OVMRUB =          32   33132.7226562   37889.7187500
 CG ITER, OVMR, OVMRUB =          33   33156.5742188   37889.7187500
 CG ITER, OVMR, OVMRUB =          34   33172.2539062   37889.7187500
 CG ITER, OVMR, OVMRUB =          35   33191.7187500   37889.7187500
 CG ITER, OVMR, OVMRUB =          36   33233.3945312   37889.7187500
 CG ITER, OVMR, OVMRUB =          37   33244.8906250   37889.7187500
 CG ITER, OVMR, OVMRUB =          38   33257.1914062   37889.7187500
 CG ITER, OVMR, OVMRUB =          39   33289.3125000   37889.7187500
 CG ITER, OVMR, OVMRUB =          40   33298.9023438   37889.7187500
 CG ITER, OVMR, OVMRUB =          41   33333.3085938   37889.7187500
 CG ITER, OVMR, OVMRUB =          42   33345.2187500   37889.7187500
 CG ITER, OVMR, OVMRUB =          43   33362.6210938   37889.7187500
 CG ITER, OVMR, OVMRUB =          44   33392.1992188   37889.7187500
 CG ITER, OVMR, OVMRUB =          45   33400.8828125   37889.7187500
 CG ITER, OVMR, OVMRUB =          46   33416.7617188   37889.7187500
 CG ITER, OVMR, OVMRUB =          47   33432.0273438   37362.6679688
 CG ITER, OVMR, OVMRUB =          48   33450.2500000   37362.6679688
 CG ITER, OVMR, OVMRUB =          49   33470.0507812   37362.6679688
 CG ITER, OVMR, OVMRUB =          50   33480.6523438   37362.6679688
 CG ITER, OVMR, OVMRUB =          51   33504.9101562   36887.9023438
 CG ITER, OVMR, OVMRUB =          52   33482.6601562   36887.9023438
 CG ITER, OVMR, OVMRUB =          53   33495.2539062   36887.9023438
 CG ITER, OVMR, OVMRUB =          54   33494.9023438   36887.9023438
 CG ITER, OVMR, OVMRUB =          55   33494.9023438   36887.9023438
OVLB =   33494.9023438 OVLUB =   36887.9023438 TIME =       5.8800001
